50 2152
653 647 540 285 743 393 240 881 783 178 396 134 1043 596 644 750 665 968 393 480 535 307 733 365 293 94 425 722 532 902 59 143 285 503 404 714 239 158 279 177 738 443 1 1 395 405 359 351 954 649 
697 602 500 369 822 431 167 889 767 152 349 217 958 626 670 682 735 998 411 428 455 365 718 436 358 94 460 717 511 909 139 49 237 555 502 719 326 226 302 268 801 399 40 43 305 488 339 335 961 630 
